Data path: /scratch/opt/lxu/CFLG/benchmarks/tree_B
Instance: treeB.700.70
Result path: /scratch/opt/lxu/CFLG/results/tree_B
Solver: Gurobi
Time limit: 7200
Formulation: LEFPAI
Cover: Large
julia --project=. src/main.jl /scratch/opt/lxu/CFLG/benchmarks/tree_B treeB.700.70 /scratch/opt/lxu/CFLG/results/tree_B Gurobi 7200 LEFPAI Large
The latest version of Julia in the `release` channel is 1.11.5+0.x64.linux.gnu. You currently have `1.11.4+0.x64.linux.gnu` installed. Run:

  juliaup update

in your terminal shell to install Julia 1.11.5+0.x64.linux.gnu and update the `release` channel to that version.
/scratch/opt/lxu/CFLG/benchmarks/tree_B Gurobi 7200.0 /scratch/opt/lxu/CFLG/results/tree_B treeB.700.70 LEFPAI Large
/scratch/opt/lxu/CFLG/benchmarks/tree_B/treeB.700.70

 read graph
data loaded

problem_graph/original graph: node: 700/700 edge: 769/769 dlt: 2.9952349478074476 break_avg_len: 1.4976174739037238 break_max_len: 1.9999766211030285Vbar/V, Ebar/E(300, 700, 369, 769)
Set parameter TokenServer to value "solice01.zib.de"
Set parameter Threads to value 1
Set parameter OutputFlag to value 1
Gurobi Optimizer version 12.0.1 build v12.0.1rc0 (linux64 - "Debian GNU/Linux 12 (bookworm)")

CPU model: Intel(R) Xeon(R) Gold 5122 CPU @ 3.60GHz, instruction set [SSE2|AVX|AVX2|AVX512]
Thread count: 8 physical cores, 16 logical processors, using up to 1 threads

Non-default parameters:
Threads  1

Optimize a model with 909 rows, 1467 columns and 2445 nonzeros
Model fingerprint: 0xb7005624
Coefficient statistics:
  Matrix range     [1e+00, 1e+00]
  Objective range  [1e+00, 1e+00]
  Bounds range     [1e+00, 1e+00]
  RHS range        [1e+00, 1e+00]
Presolve removed 909 rows and 1467 columns
Presolve time: 0.00s
Presolve: All rows and columns removed
Iteration    Objective       Primal Inf.    Dual Inf.      Time
       0    1.2000000e+02   0.000000e+00   0.000000e+00      0s

Solved in 0 iterations and 0.00 seconds (0.00 work units)
Optimal objective  1.200000000e+02

User-callback calls 35, time in user-callback 0.00 sec
elapsed CPU time: 1.528831 seconds
Set parameter TokenServer to value "solice01.zib.de"
Set parameter Threads to value 1
Set parameter OutputFlag to value 1
Set parameter MIPGap to value 0.0001
Set parameter MIPGapAbs to value 0.999998
Set parameter TimeLimit to value 7198.471169

 more cuts: false 2.9952349478074476 false
is_attach:trueformulation:LEFPAI0 489 0

 model loaded

Gurobi Optimizer version 12.0.1 build v12.0.1rc0 (linux64 - "Debian GNU/Linux 12 (bookworm)")

CPU model: Intel(R) Xeon(R) Gold 5122 CPU @ 3.60GHz, instruction set [SSE2|AVX|AVX2|AVX512]
Thread count: 8 physical cores, 16 logical processors, using up to 1 threads

Non-default parameters:
TimeLimit  7198.471169
MIPGapAbs  0.999998
Threads  1

Optimize a model with 8780 rows, 8400 columns and 23433 nonzeros
Model fingerprint: 0xbacfafb7
Model has 5604 simple general constraints
  5604 INDICATOR
Variable types: 1398 continuous, 7002 integer (7002 binary)
Coefficient statistics:
  Matrix range     [1e-02, 3e+00]
  Objective range  [1e+00, 1e+00]
  Bounds range     [1e-02, 3e+00]
  RHS range        [1e-06, 3e+00]
  GenCon rhs range [5e-04, 3e+00]
  GenCon coe range [1e+00, 1e+00]
Presolve removed 1659 rows and 4054 columns
Presolve time: 0.34s
Presolved: 7121 rows, 4346 columns, 35110 nonzeros
Variable types: 658 continuous, 3688 integer (3688 binary)
Found heuristic solution: objective 477.0000000
Found heuristic solution: objective 472.0000000
Found heuristic solution: objective 350.0000000

Root relaxation: objective 1.477634e+02, 3499 iterations, 0.05 seconds (0.05 work units)

    Nodes    |    Current Node    |     Objective Bounds      |     Work
 Expl Unexpl |  Obj  Depth IntInf | Incumbent    BestBd   Gap | It/Node Time

     0     0  147.76336    0  796  350.00000  147.76336  57.8%     -    0s
H    0     0                     346.0000000  147.76336  57.3%     -    0s
H    0     0                     247.0000000  147.76336  40.2%     -    0s
H    0     0                     240.0000000  147.76336  38.4%     -    0s
H    0     0                     239.0000000  147.76336  38.2%     -    0s
H    0     0                     238.0000000  147.76336  37.9%     -    0s
     0     0  156.98759    0 1006  238.00000  156.98759  34.0%     -    0s
     0     0  157.31065    0 1002  238.00000  157.31065  33.9%     -    0s
     0     0  157.31531    0  988  238.00000  157.31531  33.9%     -    0s
     0     0  157.31736    0 1007  238.00000  157.31736  33.9%     -    0s
     0     0  165.09571    0  949  238.00000  165.09571  30.6%     -    1s
H    0     0                     226.0000000  165.09571  26.9%     -    1s
H    0     0                     225.0000000  165.09571  26.6%     -    1s
     0     0  165.32124    0  966  225.00000  165.32124  26.5%     -    1s
     0     0  165.36709    0  958  225.00000  165.36709  26.5%     -    1s
     0     0  165.38852    0  981  225.00000  165.38852  26.5%     -    1s
     0     0  165.38971    0  988  225.00000  165.38971  26.5%     -    1s
     0     0  168.27448    0  966  225.00000  168.27448  25.2%     -    1s
H    0     0                     219.0000000  168.27448  23.2%     -    1s
H    0     0                     218.0000000  168.27448  22.8%     -    1s
     0     0  168.35737    0  936  218.00000  168.35737  22.8%     -    1s
     0     0  168.36418    0  921  218.00000  168.36418  22.8%     -    1s
     0     0  168.36972    0  975  218.00000  168.36972  22.8%     -    1s
     0     0  170.28380    0  910  218.00000  170.28380  21.9%     -    1s
H    0     0                     217.0000000  170.28380  21.5%     -    1s
     0     0  170.44559    0  885  217.00000  170.44559  21.5%     -    1s
     0     0  170.46240    0  895  217.00000  170.46240  21.4%     -    1s
     0     0  170.46349    0  896  217.00000  170.46349  21.4%     -    1s
     0     0  170.66790    0  945  217.00000  170.66790  21.4%     -    2s
H    0     0                     215.0000000  170.66790  20.6%     -    2s
H    0     0                     214.0000000  170.66790  20.2%     -    2s
H    0     0                     213.0000000  170.66790  19.9%     -    2s
     0     0  170.71750    0  953  213.00000  170.71750  19.9%     -    2s
     0     0  170.76508    0  953  213.00000  170.76508  19.8%     -    2s
     0     0  170.76954    0  952  213.00000  170.76954  19.8%     -    2s
     0     0  171.08227    0  969  213.00000  171.08227  19.7%     -    2s
H    0     0                     205.0000000  171.10962  16.5%     -    2s
H    0     0                     204.0000000  171.10962  16.1%     -    2s
     0     0  171.10962    0  944  204.00000  171.10962  16.1%     -    2s
     0     0  171.13066    0  981  204.00000  171.13066  16.1%     -    2s
     0     0  171.13861    0 1025  204.00000  171.13861  16.1%     -    2s
     0     0  171.14914    0 1042  204.00000  171.14914  16.1%     -    2s
     0     0  171.14914    0  742  204.00000  171.14914  16.1%     -    2s
H    0     0                     200.0000000  171.15099  14.4%     -    2s
     0     2  171.30740    0  728  200.00000  171.30740  14.3%     -    3s
H   26    26                     194.0000000  171.52007  11.6%   179    3s
   296   278  176.77000   36  640  194.00000  171.58795  11.6%  46.6    5s
H  378   358                     193.0000000  171.58795  11.1%  44.1    5s
H  405   377                     192.0000000  171.58795  10.6%  42.2    5s
H  405   377                     191.0000000  171.58795  10.2%  42.2    5s
H  513   444                     190.0000000  171.59712  9.69%  42.7    6s
   552   478  182.06646   97  784  190.00000  176.77939  6.96%  42.3   10s
H  581   472                     189.0000000  181.88822  3.76%  40.2   15s
H  601   459                     188.0000000  183.52778  2.38%  38.9   17s
   612   466  183.52778   29  202  188.00000  183.52778  2.38%  38.2   20s
   645   490  184.26667   80  359  188.00000  184.26667  1.99%   251   25s
   674   509  188.00000  156  263  188.00000  184.70238  1.75%   240   30s
   921   566  186.00885   37  288  188.00000  184.91667  1.64%   307   35s
  1218   605  185.83333   35  311  188.00000  185.20000  1.49%   249   40s
  1849   618  185.68750   35  264  188.00000  185.43750  1.36%   184   45s
  2587   724  186.43728   38  292  188.00000  185.64828  1.25%   150   50s
  3485   972     cutoff   44       188.00000  185.80000  1.17%   127   55s
  4346  1160  187.00000   50  206  188.00000  185.91667  1.11%   114   60s
  5159  1288     cutoff   42       188.00000  186.06711  1.03%   108   65s
  5872  1440  186.77295   45  348  188.00000  186.12500  1.00%   103   70s
  6621  1604  186.54299   37  260  188.00000  186.18750  0.96%  98.2   75s
  7507  1756     cutoff   43       188.00000  186.25000  0.93%  94.3   80s
  8173  1814  186.73691   41  279  188.00000  186.31250  0.90%  92.2   85s
  9110  1932  186.61984   38  245  188.00000  186.35473  0.88%  89.5   90s
  9917  1942     cutoff   38       188.00000  186.42752  0.84%  88.7   95s
 10233  1939  186.82193   43  265  188.00000  186.45833  0.82%  88.4  109s
 10390  1929  186.97489   44  238  188.00000  186.47652  0.81%  88.4  110s
 11018  1833  186.58333   36  227  188.00000  186.50000  0.80%  90.6  115s
 11560  1748  186.70506   43  367  188.00000  186.51184  0.79%  92.5  120s
 12160  1561  186.61364   43  236  188.00000  186.58333  0.75%  93.5  125s
 12847  1294     cutoff   44       188.00000  186.69619  0.69%  94.9  130s
 13997   313     cutoff   46       188.00000  187.00000  0.53%  92.8  135s

Cutting planes:
  Learned: 12
  Gomory: 41
  Cover: 119
  Implied bound: 61
  Clique: 6
  MIR: 142
  Mixing: 6
  StrongCG: 10
  Flow cover: 493
  GUB cover: 100
  Inf proof: 6
  Zero half: 181
  Mod-K: 2
  RLT: 61
  Relax-and-lift: 26
  BQP: 12

Explored 14325 nodes (1354376 simplex iterations) in 136.37 seconds (100.67 work units)
Thread count was 1 (of 16 available processors)

Solution count 10: 188 189 190 ... 194

Optimal solution found (tolerance 1.00e-04)
Best objective 1.880000000000e+02, best bound 1.880000000000e+02, gap 0.0000%

User-callback calls 74829, time in user-callback 0.09 sec

 sepatime0 0 0
188.0Stat(MathOptInterface.OPTIMAL, 188.0, 188.0, 0.0, 0.0, 1.528831, 136.37150621414185, 14325, Main.CFLG.LEFPAI, "", #undef)
ERROR: LoadError: SystemError: opening file "/scratch/opt/lxu/CFLG/results/tree_B/treeB.700.70.LEFPAI.Large": No such file or directory
Stacktrace:
 [1] systemerror(p::String, errno::Int32; extrainfo::Nothing)
   @ Base ./error.jl:176
 [2] systemerror
   @ ./error.jl:175 [inlined]
 [3] open(fname::String; lock::Bool, read::Nothing, write::Nothing, create::Nothing, truncate::Bool, append::Nothing)
   @ Base ./iostream.jl:295
 [4] open
   @ ./iostream.jl:277 [inlined]
 [5] open(fname::String, mode::String; lock::Bool)
   @ Base ./iostream.jl:358
 [6] open
   @ ./iostream.jl:357 [inlined]
 [7] main(args::Vector{String})
   @ Main /scratch/opt/lxu/CFLG/src/main.jl:51
 [8] top-level scope
   @ /scratch/opt/lxu/CFLG/src/main.jl:57
in expression starting at /scratch/opt/lxu/CFLG/src/main.jl:57
srun: error: htc-cmp468: task 0: Exited with exit code 1
